!Freq.	S11	S11	S21	S21	S12	S12	S22	S22
!MHz	dB	Deg	dB	Deg	dB	Deg	dB	Deg
# MHz S DB R 50								
10 -12.2 -61.9 17.7 167.0 -20.6 12.1 -17.9 -94.7
20 -13.5 -39.4 17.2 169.7 -20.4 10.0 -17.5 -52.1
50 -15.9 -50.9 16.4 168.8 -19.6 6.6 -20.1 -79.8
100 -20.7 -73.2 15.9 167.6 -19.1 1.7 -22.8 -112.9
200 -25.5 -85.5 15.5 163.8 -18.9 -4.6 -24.8 -144.3
500 -28.6 -91.1 15.4 146.9 -18.8 -18.2 -27.2 -177.2
900 -27.0 -99.7 15.3 122.7 -19.0 -34.2 -29.8 175.9
1000 -26.3 -101.9 15.3 116.5 -19.0 -38.2 -30.7 179.6
1500 -23.4 -117.6 15.2 85.5 -19.3 -58.3 -28.7 -137.4
1900 -21.4 -136.1 15.1 60.2 -19.6 -74.8 -23.5 -131.5
2000 -21.0 -141.8 15.1 53.9 -19.7 -79.0 -22.4 -132.7
2500 -18.8 -174.7 15.0 21.3 -20.1 -100.5 -18.1 -143.2
3000 -15.9 137.8 14.9 -12.9 -20.6 -122.9 -15.2 -150.9
3500 -13.5 106.2 14.7 -49.9 -21.2 -146.4 -12.0 -175.7
4000 -12.3 72.3 14.2 -89.5 -21.7 -170.4 -9.4 157.3
